c Generated by SAT Solver
p cnf 1003 76
101 102 103 0
201 202 203 0
301 302 303 0
401 402 403 0
501 502 503 0
601 602 603 0
701 702 703 0
801 802 803 0
901 902 903 0
1001 1002 1003 0
-101 -102 0
-101 -103 0
-102 -103 0
-201 -202 0
-201 -203 0
-202 -203 0
-301 -302 0
-301 -303 0
-302 -303 0
-401 -402 0
-401 -403 0
-402 -403 0
-501 -502 0
-501 -503 0
-502 -503 0
-601 -602 0
-601 -603 0
-602 -603 0
-701 -702 0
-701 -703 0
-702 -703 0
-801 -802 0
-801 -803 0
-802 -803 0
-901 -902 0
-901 -903 0
-902 -903 0
-1001 -1002 0
-1001 -1003 0
-1002 -1003 0
-101 -201 0
-102 -202 0
-103 -203 0
-101 -301 0
-102 -302 0
-103 -303 0
-101 -401 0
-102 -402 0
-103 -403 0
-101 -901 0
-102 -902 0
-103 -903 0
-201 -301 0
-202 -302 0
-203 -303 0
-201 -901 0
-202 -902 0
-203 -903 0
-301 -401 0
-302 -402 0
-303 -403 0
-301 -501 0
-302 -502 0
-303 -503 0
-301 -701 0
-302 -702 0
-303 -703 0
-301 -901 0
-302 -902 0
-303 -903 0
-401 -901 0
-402 -902 0
-403 -903 0
-501 -701 0
-502 -702 0
-503 -703 0
